NAME : cgl_73.7974.tour
COMMENT : Length = 7974
COMMENT : Found by LKH-3 [Keld Helsgaun] Fri Nov  8 19:20:31 2024
TYPE : TOUR
DIMENSION : 73
TOUR_SECTION
41
43
42
46
40
45
44
31
30
59
61
66
63
64
65
67
62
60
69
68
70
71
72
26
73
1
11
9
12
10
13
14
18
15
19
16
17
20
6
7
5
2
8
4
3
21
22
23
24
25
29
27
28
56
57
55
52
47
50
49
48
51
53
54
39
35
36
34
58
32
33
38
37
-1
EOF
